c Random generated cnf formula, satisfiable: true
p cnf 10 50
10 3 5 0
1 4 6 0
-8 1 6 0
-3 -9 -8 0
-1 -4 3 0
-6 -10 -5 0
7 -3 5 0
10 3 -2 0
-1 -10 4 0
9 -3 10 0
2 6 -1 0
2 -9 -5 0
-6 -8 2 0
2 -8 -7 0
-2 -5 -10 0
-10 5 1 0
-8 9 -10 0
10 1 9 0
-4 -8 -5 0
-8 7 6 0
-6 5 3 0
8 10 9 0
-5 3 -6 0
8 6 2 0
5 -7 10 0
8 -5 2 0
8 4 1 0
9 7 8 0
1 4 -6 0
7 -5 6 0
-1 7 2 0
-1 10 4 0
-4 -3 6 0
4 -10 2 0
-6 4 3 0
-9 10 5 0
-4 10 -8 0
-4 2 -6 0
4 -5 -8 0
-2 7 -4 0
-10 3 2 0
-3 5 4 0
-7 -5 -9 0
2 8 5 0
-3 9 10 0
8 -4 1 0
-2 -6 4 0
7 3 -6 0
-10 3 5 0
-9 -8 10 0
